WARNING: for repeatability, setting FPU to use double precision
============================[ Problem Statistics ]=============================
|                                                                             |
|  Number of variables:           100                                         |
|  Number of clauses:             449                                         |
|  Parse time:                   0.00 s                                       |
|  Eliminated clauses:           0.00 Mb                                      |
|  Simplification time:          0.00 s                                       |
|                                                                             |
============================[ Search Statistics ]==============================
| Conflicts |          ORIGINAL         |          LEARNT          | Progress |
|           |    Vars  Clauses Literals |    Limit  Clauses Lit/Cl |          |
===============================================================================
|       100 |      92      441     1374 |      161      100      6 |  0.012 % |
|       250 |      92      441     1374 |      177      163      6 |  0.020 % |
===============================================================================
restarts              : 3
conflicts             : 288            (80067 /sec)
decisions             : 372            (0.00 % random) (103420 /sec)
propagations          : 6252           (1738115 /sec)
conflict literals     : 1778           (22.76 % deleted)
Memory used           : 13.00 MB
CPU time              : 0.003597 s

SATISFIABLE
